Route 1: 0 65 47 98 79 25 61 45 82 7 31 34 69 0
Route 2: 0 53 67 8 66 32 100 43 60 59 0
Route 3: 0 17 35 10 18 87 83 33 15 39 51 81 0
Route 4: 0 24 56 2 74 84 63 11 37 5 22 57 14 0
Route 5: 0 70 42 38 6 92 77 12 52 50 0
Route 6: 0 36 28 91 16 30 72 71 89 58 96 62 0
Route 7: 0 93 13 54 68 86 64 94 0
Route 8: 0 75 4 97 78 76 23 9 26 1 88 41 0
Route 9: 0 90 46 85 20 73 55 48 49 3 0
Route 10: 0 99 29 80 19 27 44 40 95 21 0
